Minimize

10.0 x_0 + 3.0 x_1 + 1.5 x_2 + 5.0 x_3


Subject To

a0: 1 x_0 + 1 x_1 + 0 x_2 + 0 x_3 >= 1
a1: 1 x_0 + 0 x_1 + 0 x_2 + 0 x_3 >= 1
a2: 1 x_0 + 0 x_1 + 0 x_2 + 0 x_3 >= 1
a3: 1 x_0 + 1 x_1 + 0 x_2 + 0 x_3 >= 1
a4: 0 x_0 + 0 x_1 + 1 x_2 + 1 x_3 >= 1
b0: 1 x_0 - y_0 <= 0
b1: 1 x_1 - y_0 <= 0
b2: 0 x_2 - y_0 <= 0
b3: 1 x_3 - y_0 <= 0
b4: 0 x_0 - y_1 <= 0
b5: 0 x_1 - y_1 <= 0
b6: 1 x_2 - y_1 <= 0
b7: 0 x_3 - y_1 <= 0
c0: y_0 + y_1 <= 1




Binary

x_0 x_1 x_2 x_3 y_0 y_1

 


End
